proyfinal/src/viki/013/andrea/andrea-localstore/experimentInOfficeAgust.take6/worker_3/351b7f89-aa8d-4895-a226-c50aad3b70ba.als.cnf.out
Reading from standard input... Use '--help' for help.
============================[ Problem Statistics ]=============================
|                                                                             |
|  Number of variables:         87638                                         |
|  Number of clauses:          161767                                         |
|  Parse time:                   0.03 s                                       |
|                                                                             |
============================[ Search Statistics ]==============================
| Conflicts |          ORIGINAL         |          LEARNT          | Progress |
|           |    Vars  Clauses Literals |    Limit  Clauses Lit/Cl |          |
===============================================================================
|       100 |   62037   103946   259741 |    38113      100     27 | 29.212 % |
|       250 |   62037   103946   259741 |    41924      250     37 | 29.212 % |
|       475 |   62037   103946   259741 |    46117      475     37 | 29.212 % |
|       812 |   62019   103913   259657 |    50729      810     35 | 29.233 % |
|      1318 |   62019   103880   259569 |    55802     1314     54 | 29.233 % |
|      2077 |   62018   103836   259479 |    61382     2071     86 | 29.234 % |
|      3216 |   61973   103671   259039 |    67520     3189     87 | 29.285 % |
|      4924 |   61973   103671   259039 |    74272     4897     89 | 29.285 % |
|      7486 |   61973   103671   259039 |    81699     7459     98 | 29.285 % |
|     11330 |   49192    66510   167925 |    89869    10145     86 | 43.869 % |
===============================================================================
restarts              : 61
conflicts             : 14382          (6672 /sec)
decisions             : 43655          (0.00 % random) (20251 /sec)
propagations          : 20601923       (9556829 /sec)
conflict literals     : 1139353        (48.30 % deleted)
Memory used           : 38.67 MB
CPU time              : 2.15573 s

UNSATISFIABLE
